(set-info :smt-lib-version 2.6)
(set-logic QF_S)
(set-info :source |
Generated by: Shaoke Cui
Generated on: 2025-04-10
Application: Using String Solvers to solve string matching problems
Target solver: Z3, Z3alpha, Z3-noodler
Benchmarks for string matching problem with wildcards, which needs to determine whether two strings containing two wildcards can match.
Use re.allchar and (re.* re.allchar) to represent wildcards.
Determine whether the two strings match by judging whether the result of re.inter is re.none.
|)
(set-info :license "https://creativecommons.org/licenses/by/4.0/")
(set-info :category "crafted")
(set-info :status unknown)
(assert (= re.none (re.inter  (re.++ (str.to_re "nnhsotevnoopikqshcwuf") (re.* re.allchar) (str.to_re "hqpqjpdsv") re.allchar (str.to_re "opccdqywzomvjaavidxf") re.allchar (str.to_re "zxene") re.allchar (str.to_re "xsy") (re.* re.allchar) (str.to_re "bndppz") (re.* re.allchar) (str.to_re "pejxvkn") (re.* re.allchar) (str.to_re "htxfikcvgltyr") re.allchar (str.to_re "vt") (re.* re.allchar) (str.to_re "dasioslry") (re.* re.allchar) (str.to_re "oudbjnobkq") (re.* re.allchar) (str.to_re "isrbmbhzqymhyipjmjdehc") re.allchar (str.to_re "pqklijku") (re.* re.allchar) (str.to_re "cmlr") (re.* re.allchar) (str.to_re "cjylttltnagowaprewbqwh") re.allchar (str.to_re "ggdebkalepaebexxzbedaeu") re.allchar (str.to_re "krrpuvmmoeznybzeznpwzqzklxlkleqcsymotiwyhgtjrthisc") (re.* re.allchar) (str.to_re "rwurgxrfce") re.allchar (str.to_re "ugqjitctzd") (re.* re.allchar) (str.to_re "jizknejvzbqumyvzvmyxxzpyrxaixpklwzsriwxfswijdcogluixr") (re.* re.allchar) (re.* re.allchar) (str.to_re "beftqxwlsz") (re.* re.allchar) (str.to_re "uya") (re.* re.allchar) (str.to_re "jwpthoeicwmuzpcrqdfwx") (re.* re.allchar) (str.to_re "ccv") re.allchar (str.to_re "v") re.allchar (str.to_re "mihgmzdwuqb") (re.* re.allchar) (str.to_re "oybsfpfqmruux") re.allchar (str.to_re "gyckllv") re.allchar (str.to_re "jgruwjouearmutfnlbvxtdsw") (re.* re.allchar) (str.to_re "dlgaloywjuivkjnsi") re.allchar (str.to_re "e") re.allchar (str.to_re "znhatwqpqccqflkievurnbcvajnddhtm") (re.* re.allchar) (str.to_re "fhztcvobbezkwftaujpklexotoaesjpy") re.allchar (str.to_re "h") re.allchar (str.to_re "xurwzfli") (re.* re.allchar) (str.to_re "qk") re.allchar re.allchar (str.to_re "mzufko") re.allchar (str.to_re "qjucvkldcw") (re.* re.allchar) (str.to_re "aitgfdrhnmntbdpkwwyzayvkegoeigvfr") re.allchar (str.to_re "hevdymkxpoakcu") (re.* re.allchar) (str.to_re "muusqcugjfnjsapcozgzsrjvjmz") (re.* re.allchar) (str.to_re "urxuvqhoacljyzvafjepntxfvalhaznrrjnujishwscjjnvoeuhcevu") re.allchar (str.to_re "wnnwwhqrtyqkfkkxhoxogbda") re.allchar (str.to_re "fgrnlrcrpp") re.allchar (str.to_re "nmaojgscsynybnyix") (re.* re.allchar) (str.to_re "newkgrcixp") re.allchar (str.to_re "foiwvwdzjpy") re.allchar (str.to_re "w") (re.* re.allchar) (str.to_re "uarppechfeeegnflpftuizacmghtqqrpcua") (re.* re.allchar) (str.to_re "aasscakzimbu") re.allchar (str.to_re "ppdptfinautz") re.allchar (str.to_re "nqridgda") re.allchar (str.to_re "yglkfizbgvvfisyxqzywanztwgqhlsdzqnsziziijkiobqycmaeyemdptprvyngcmrh") re.allchar (str.to_re "csnreaym") re.allchar (str.to_re "ejtmtdvyfnfovrrxgweawcsuqmzitwmrzzpwrjxskyjsiwyhldkquechudlphbeawgtmyfvkbqzhbsyycekymqojfuebylul") (re.* re.allchar) (str.to_re "ocbzztgihefxy") re.allchar (str.to_re "zdhftracyuziivnhwzwtsnxwgudmjwaqv") (re.* re.allchar) (str.to_re "xduqxyjjnxlytfl") re.allchar (str.to_re "cubo") (re.* re.allchar) (str.to_re "dykygukwhmfnjl") (re.* re.allchar) (str.to_re "blgvszwthnoboxnklscovevrlminyvawnnuyrlidirvtagmuopskrwfhaovskajrmfsgxiilsqkmgkdhncrahquxfpn") re.allchar (str.to_re "u") re.allchar (str.to_re "dllvrycxyt") (re.* re.allchar) re.allchar (str.to_re "nftddhszffnuhehcgjszhdapwlwmhrbaxan") re.allchar (str.to_re "myle") re.allchar (str.to_re "yp") (re.* re.allchar) (str.to_re "hygvwqaatvirudgryrpbjlmmzuzjblastuzwptpiitzzkregrnkj") re.allchar (str.to_re "qwejaonvzgknhncqiy") (re.* re.allchar) (str.to_re "nxtapoejubxulacjiqtiuxer") (re.* re.allchar) (str.to_re "j") re.allchar (str.to_re "bacbf") re.allchar (str.to_re "fzfn") re.allchar (str.to_re "xm") (re.* re.allchar) (str.to_re "nqige") re.allchar (str.to_re "hpfhgtuczhfgonoaahuyvcoijpxjhjbiglzbq") (re.* re.allchar) (str.to_re "avonqhnkp") re.allchar (str.to_re "sppprfarwrnelqpvnoyctoslyopwq") (re.* re.allchar) re.allchar (str.to_re "abznxfewwgafu") (re.* re.allchar) (str.to_re "lgmnrymgo") (re.* re.allchar) (str.to_re "ddkpkqvqeszyn") re.allchar (str.to_re "xckeel") re.allchar (str.to_re "lojecpnquibhwvtrllcasfcvdzndxppphnace") re.allchar (str.to_re "qjxbvzewoddwzetmkicb") re.allchar (str.to_re "lmdxaghfouxfpijzijvvcuofvvwyxf") (re.* re.allchar) re.allchar (str.to_re "d") re.allchar (str.to_re "qcehqmtpojmexqwxmzsqri") re.allchar (str.to_re "wfftihpwwrdnqlilqwrkjhnrkpd") (re.* re.allchar) (str.to_re "mh") re.allchar (re.* re.allchar) (str.to_re "wcdbzafebaoihkseq") (re.* re.allchar) (str.to_re "glberwfgsmftitgbyclxdujtczokmh") (re.* re.allchar) (str.to_re "enojouthooexpzbtadasgthphaqiprbrjjpyvm") (re.* re.allchar) (str.to_re "mckk") (re.* re.allchar) (str.to_re "cpdkabwocnjbeuzx") re.allchar (str.to_re "rb") (re.* re.allchar) (str.to_re "qusgyfokmw") re.allchar (str.to_re "sx") re.allchar (str.to_re "mkbvdlhppjfnfbihqsrm") re.allchar (str.to_re "v") (re.* re.allchar) (str.to_re "upplkg") re.allchar (re.* re.allchar) (str.to_re "jmxvtsvi") re.allchar (str.to_re "llgmiil") (re.* re.allchar) (str.to_re "ko") (re.* re.allchar) (str.to_re "ewenqzvsgqwna") re.allchar (str.to_re "yohb") re.allchar (str.to_re "kptbi") (re.* re.allchar) (str.to_re "enzuoyrofs") re.allchar (str.to_re "mrezrzpjev") (re.* re.allchar) (str.to_re "puwui") (re.* re.allchar) (str.to_re "cu") (re.* re.allchar) (str.to_re "smpcjcgrmgy") (re.* re.allchar) (str.to_re "qvsijrzhzvptqe") (re.* re.allchar) (str.to_re "wwyayl") (re.* re.allchar) (str.to_re "czujjckdhm") (re.* re.allchar) (str.to_re "otostoghnu") re.allchar (str.to_re "jnpaiymvitobbpzxsyrtrmqorgin") re.allchar (str.to_re "qeotymxqjgvwli") re.allchar (str.to_re "rkrlxudypjzrcgo") re.allchar (str.to_re "vjcueiio") (re.* re.allchar) (str.to_re "yatnbd") (re.* re.allchar) (str.to_re "tajliyuuwbiufvnl") (re.* re.allchar) (str.to_re "wpbeeasksbcoa") (re.* re.allchar) (str.to_re "ilgsfgdra") re.allchar (str.to_re "wrkfiynjim") re.allchar (str.to_re "ldgmtwjcnjeuiobamnntshwwevnxrcialeyprcvmatnghiuikgugwod") re.allchar (str.to_re "qoykufrbqzyryrhvclaxrxsjwcuisxjuiknadztiylajfs") re.allchar (str.to_re "yk") re.allchar (str.to_re "rhumbmbsxdipmslummiladxqvfqcifvwa") re.allchar (str.to_re "dckzctnufecdvpdly") re.allchar (str.to_re "ecyaip") (re.* re.allchar) (str.to_re "cy") re.allchar (str.to_re "bklrcqhapvdmsvcffpvfre") re.allchar re.allchar (str.to_re "ohgijrmlhnv") (re.* re.allchar) (str.to_re "hwbndhhw") re.allchar (str.to_re "jcwvhjn") (re.* re.allchar) (re.* re.allchar) (str.to_re "acvsftujo") re.allchar (str.to_re "ymo") re.allchar (str.to_re "n") (re.* re.allchar) (str.to_re "pnntjlrrscrhcxwzamracprlyphmooosonxgiy") re.allchar (str.to_re "m") re.allchar re.allchar re.allchar (str.to_re "pk") (re.* re.allchar) (str.to_re "qcpacidyhnplt") (re.* re.allchar) (str.to_re "ejjpzijsfelo") re.allchar (str.to_re "ku") re.allchar re.allchar (str.to_re "qyeih") re.allchar (str.to_re "byatvqrvlezgvzw") re.allchar (str.to_re "uwnwmrtwqml") re.allchar (str.to_re "nk") re.allchar (str.to_re "eo") re.allchar (str.to_re "icmxzs") re.allchar (str.to_re "baobqkjbsancf") (re.* re.allchar) (str.to_re "mqybkwpjmbufirp") re.allchar (str.to_re "cijaeffyjveuyr") re.allchar (str.to_re "dwwfbovlsvhxiutvuhpuy") (re.* re.allchar) re.allchar (str.to_re "krrwlwlvzpvknlxo") re.allchar (str.to_re "elhaccmzifdm") (re.* re.allchar) (str.to_re "rd") re.allchar (str.to_re "fmnjnnnlnwdqsyfumnkfnebhhsvncwexigu") re.allchar (str.to_re "qetbantcicgdrubx") (re.* re.allchar) (str.to_re "yzaspqsosxqskzkrvdmssaj") re.allchar (str.to_re "b") re.allchar (str.to_re "fb") re.allchar (str.to_re "oikvoefiwmfznnv") (re.* re.allchar) (str.to_re "npy") re.allchar (str.to_re "af") (re.* re.allchar) (str.to_re "ngnzn") (re.* re.allchar) (str.to_re "ky") (re.* re.allchar) (str.to_re "ioooxmhxyfxgg") re.allchar (str.to_re "ykbc") re.allchar (str.to_re "nhtyomdqqwxuqzvauenra") re.allchar (str.to_re "nfbolohppvzogyzmzndrcvhhkfjko") (re.* re.allchar) re.allchar (str.to_re "hdcochfbeabunwfifiijqu") (re.* re.allchar) (str.to_re "scgy") re.allchar (str.to_re "kftavjypeqncdu") (re.* re.allchar) (str.to_re "l") (re.* re.allchar) (str.to_re "zp") (re.* re.allchar) (str.to_re "dqtpjzdtqtwsxdgcrbpqnwhyhrhyltpznbzbinuxxfq") re.allchar (str.to_re "ubxawmutkumdkeusrlsayajh") re.allchar re.allchar (str.to_re "cub") (re.* re.allchar) (str.to_re "vg") (re.* re.allchar) (str.to_re "ucgriiftqmkr") (re.* re.allchar) (str.to_re "svfezdb") re.allchar (str.to_re "nunrbic") re.allchar (str.to_re "z") (re.* re.allchar) (str.to_re "tyohqopp") re.allchar (str.to_re "goojhnwd") re.allchar (str.to_re "jjgfdacnjky") (re.* re.allchar) (str.to_re "mzdwygsqkitptsatfohmxrnesi") (re.* re.allchar) (str.to_re "caudopln") re.allchar (str.to_re "jiyqpsbplsobeg") (re.* re.allchar) (str.to_re "axhowbcfippsefsdsrmzdacowdktuoepneu") re.allchar (str.to_re "hcpcgspwvllyco") (re.* re.allchar) (str.to_re "creybkpclldwufnwxobzbxxvjgl") (re.* re.allchar) (str.to_re "qapcrhq") (re.* re.allchar) (str.to_re "ixjpvjsheyt") re.allchar (str.to_re "s") (re.* re.allchar) (str.to_re "yuckla") (re.* re.allchar) (str.to_re "kjlmbwtapomowbhwctezymlsqsuyroqwpyaysfkzfwdfeo") (re.* re.allchar) (str.to_re "kooykvqiwxzjrdgqgdta") re.allchar re.allchar (str.to_re "jidcpbjjqokgy") (re.* re.allchar) (str.to_re "edvpzytjq") (re.* re.allchar) re.allchar (str.to_re "g") (re.* re.allchar) (str.to_re "ssfbwnyyxaqmdr") re.allchar (str.to_re "fytdumzvpkeqiiq") (re.* re.allchar) (str.to_re "uoups") re.allchar (str.to_re "ztzbevlqjrndc") re.allchar (str.to_re "gfxfogtapnbafa") (re.* re.allchar) (str.to_re "qvfzzopxjenljn") re.allchar (str.to_re "wpwcqptews") (re.* re.allchar) (str.to_re "jflasdg") (re.* re.allchar) (str.to_re "hpaasvcewbftd") re.allchar (str.to_re "hicbp") re.allchar (str.to_re "yesyxubgsvkfbsvp") (re.* re.allchar) (str.to_re "cawatoxls") re.allchar (str.to_re "kxbbkjewwqbjrfosjjuhm") re.allchar (str.to_re "jzacndk") re.allchar (str.to_re "kjf") re.allchar (str.to_re "qtktkutxjma") (re.* re.allchar) (str.to_re "hycymkgzwfozlwzwpfqmrl") re.allchar (re.* re.allchar) (str.to_re "smmqsfzjfr") re.allchar (str.to_re "ldfk") re.allchar (re.* re.allchar) (str.to_re "deypouxnnvqmllwwky") (re.* re.allchar) re.allchar (str.to_re "psexqzqbdzaqhvsgycemxeinxrtywrpncp") (re.* re.allchar) (str.to_re "kdk") (re.* re.allchar) (str.to_re "yzal") re.allchar (str.to_re "isyu") (re.* re.allchar) (str.to_re "soyymqecyauufksatjigxzbs") (re.* re.allchar) (str.to_re "n") re.allchar (str.to_re "uecqwtsvdyhigor") re.allchar (str.to_re "qsb") (re.* re.allchar) (re.* re.allchar) (str.to_re "nd") (re.* re.allchar) (str.to_re "s") re.allchar (str.to_re "aqfpljxffbyz") (re.* re.allchar) (str.to_re "dujkyotxgciqbucf") re.allchar (str.to_re "uoonwwbrvequbkure") re.allchar (str.to_re "mvlrevxr") (re.* re.allchar) (str.to_re "ddqq") (re.* re.allchar) (str.to_re "qrdtbae") re.allchar (str.to_re "rjenddapkgclsfmhaiwpmnwpnuksdr") re.allchar (str.to_re "wftefocw") re.allchar (str.to_re "jtamqzhlcgbrqdtqgq") (re.* re.allchar) (str.to_re "vaxijter") re.allchar re.allchar (str.to_re "jevcziozqnvhatmnrmoafh") re.allchar (str.to_re "cngsqwubul") re.allchar (str.to_re "jz") (re.* re.allchar) (str.to_re "hjpzknjt") (re.* re.allchar) (str.to_re "dwa") (re.* re.allchar) (str.to_re "oxeuenexhsncdkw") (re.* re.allchar) (str.to_re "ldnsabagsaoc") re.allchar (str.to_re "rbjvklyio") re.allchar (str.to_re "tnwcudpobsqiziwuozeofpuxznyhwpxwnynuld") (re.* re.allchar) (str.to_re "wtirs") re.allchar (str.to_re "f") (re.* re.allchar) (str.to_re "szter") (re.* re.allchar) (str.to_re "rcvfszey") re.allchar (str.to_re "cpnepkozdiwrgrzwscnpvnhzgagcaweppliutr") (re.* re.allchar) (re.* re.allchar) (str.to_re "shfaiqc") (re.* re.allchar) (str.to_re "qumwoedqoaizexevihfkj") re.allchar (re.* re.allchar) (str.to_re "azc") (re.* re.allchar) (re.* re.allchar) (str.to_re "nsrcralfjspmjbgickqtfqb") re.allchar (str.to_re "cjsmeflpfympaoqkmguasrjqgujm") (re.* re.allchar) (str.to_re "vpbmfegydwxvcujfroddkt") re.allchar (str.to_re "yaqrcawejuurtqodiq") (re.* re.allchar) (str.to_re "fvqnscqaeb") (re.* re.allchar) (str.to_re "ojarpmyuicvzwktfyoxuat") re.allchar (str.to_re "tfvbawcb") (re.* re.allchar) (str.to_re "atemrazyigsvzeuigbimjb") (re.* re.allchar) (str.to_re "t") (re.* re.allchar) (str.to_re "mwrsi") re.allchar (str.to_re "aoqnfjxfnpdhblhlz") (re.* re.allchar) (str.to_re "conlgqadx") (re.* re.allchar) (re.* re.allchar) (str.to_re "llrv") re.allchar (str.to_re "obeiobrcmkzpdptfqhkctljtoinrkjcvclwxdc") (re.* re.allchar) (str.to_re "rqtstcqprgycjy") (re.* re.allchar) (str.to_re "segbmjvwixpmjdegkkgbwamtgekklfjtn") re.allchar (str.to_re "xjcbwhtldw") re.allchar (str.to_re "hxyezforwnyuuvxqmtncepcvh") (re.* re.allchar) (str.to_re "zbbymvrmpfvncmjlhmcjdhfnokncjcdjkf") (re.* re.allchar) (str.to_re "iljottevwzskcenqsrlv") re.allchar (str.to_re "vgiia") re.allchar re.allchar (str.to_re "naxbumrnovb") re.allchar (str.to_re "xiyqbwgyvqdukgdgqbzqlus") (re.* re.allchar) (str.to_re "ttrr") re.allchar (str.to_re "qezakmpiumcnidjitgywaooyuekffynsquakfhtgnqzvymrcubaohojwfgtnblzepkkqlhewjxsunltexpjcswsp") (re.* re.allchar) (str.to_re "mjjbgqu") re.allchar (str.to_re "tcsbaasaoqbbfx") re.allchar (str.to_re "im") re.allchar (str.to_re "yi") (re.* re.allchar) (str.to_re "pgrxnbwjsufscmikkflkmpzrpjsnkfqifazjvpxhvhlfbpntb") re.allchar (str.to_re "etj") re.allchar (str.to_re "xufylggubqxotjtjjabxoyn") re.allchar (str.to_re "zrihouoayez") re.allchar (str.to_re "lgshi") re.allchar (str.to_re "jyhuxelzszheihyjmleyvihapn") re.allchar (str.to_re "xnw") (re.* re.allchar) (str.to_re "pqkskvi") re.allchar (str.to_re "k") (re.* re.allchar) (str.to_re "hu") re.allchar (str.to_re "fqd") (re.* re.allchar) (str.to_re "lo") (re.* re.allchar) re.allchar (str.to_re "dqoidhuycvosmnfuwlrofwucdr") (re.* re.allchar) (str.to_re "rpdoqisymkecyyftjashnvxwbpalbkmrgruatqirmhgrrvbwahrufboop") (re.* re.allchar) (str.to_re "rqsxdqngzepyijjrhip") (re.* re.allchar) (re.* re.allchar) (str.to_re "qstgagyhobfswxegffkmg") (re.* re.allchar) (str.to_re "xsrhieapvlrkzcszuzjtewmpsvyelyqjslwa") (re.* re.allchar) (str.to_re "qv") re.allchar (str.to_re "n") (re.* re.allchar) (str.to_re "htvgo") re.allchar (str.to_re "xumkflztzbqvrlpssaonuxipqrxgwpmmovoqjajlngmxxfvlfwvvrwj") re.allchar (str.to_re "izcaafwjavrlpivnldjwwywiavrpfrp") (re.* re.allchar) (str.to_re "xqgjt") re.allchar (str.to_re "oqg") (re.* re.allchar) (str.to_re "nbasdlrwraltztrzvjbucrwkgxzvqwpgx") (re.* re.allchar) (str.to_re "trvrqgyxtrcxtkuihmsvgtarav") )   (re.++ (str.to_re "mysvgurq") re.allchar (str.to_re "bwafunqfflfghyuhnfehftdwtjujfcsfwftmpedyyexcplqexkqvkrofgpfdstpnds") (re.* re.allchar) (str.to_re "qiuiiiiezthsnbxbi") (re.* re.allchar) (str.to_re "hmonbuztiuruguzgsxywgwxwfsjbyy") re.allchar (str.to_re "gqfcgnbtlcienxqwexk") re.allchar (str.to_re "b") (re.* re.allchar) (str.to_re "itnz") (re.* re.allchar) (str.to_re "cqowlhtvzogaumyltkxayvf") (re.* re.allchar) (str.to_re "eunrczj") (re.* re.allchar) (str.to_re "l") (re.* re.allchar) (str.to_re "wzmltisjsbcbjbyhxxpxn") re.allchar (str.to_re "hvvoidhkr") (re.* re.allchar) (str.to_re "ned") re.allchar (str.to_re "qywajdnapf") (re.* re.allchar) (str.to_re "wequgmrejsa") re.allchar (str.to_re "whktvhiegy") (re.* re.allchar) re.allchar (str.to_re "lakexjhuwbiiqngeqtauowzrnynjrwjzmyqhjhoqh") re.allchar (str.to_re "sxfk") re.allchar (str.to_re "nvkbyb") (re.* re.allchar) (str.to_re "qpltqxmdgfpkndjyxzqcu") re.allchar (str.to_re "ivdfqxsluztroyf") re.allchar (str.to_re "xg") (re.* re.allchar) (str.to_re "pbkbvabfryafmysanqwjovlibttgyznrfuiblh") )  )))
(check-sat)
(exit)
